NAME : double_bridge_40
COMMENT : Two clusters with deceptive bridge connections (adversarial TSP)
TYPE : TSP
DIMENSION : 40
EDGE_WEIGHT_TYPE : EUC_2D
NODE_COORD_SECTION
1 10 10
2 20 10
3 30 10
4 40 10
5 50 10
6 10 20
7 20 20
8 30 20
9 40 20
10 50 20
11 10 30
12 20 30
13 30 30
14 40 30
15 50 30
16 10 40
17 20 40
18 30 40
19 40 40
20 50 40

21 200 10
22 210 10
23 220 10
24 230 10
25 240 10
26 200 20
27 210 20
28 220 20
29 230 20
30 240 20
31 200 30
32 210 30
33 220 30
34 230 30
35 240 30
36 200 40
37 210 40
38 220 40
39 230 40
40 240 40
EOF