NAME : snake100_opt
COMMENT : Snake grid with guaranteed optimal path
TYPE : TSP
DIMENSION : 100
EDGE_WEIGHT_TYPE : EUC_2D
NODE_COORD_SECTION
1 0 0
2 10 0
3 20 0
4 30 0
5 40 0
6 50 0
7 60 0
8 70 0
9 80 0
10 90 0
11 90 50
12 80 50
13 70 50
14 60 50
15 50 50
16 40 50
17 30 50
18 20 50
19 10 50
20 0 50
21 0 100
22 10 100
23 20 100
24 30 100
25 40 100
26 50 100
27 60 100
28 70 100
29 80 100
30 90 100
31 90 150
32 80 150
33 70 150
34 60 150
35 50 150
36 40 150
37 30 150
38 20 150
39 10 150
40 0 150
41 0 200
42 10 200
43 20 200
44 30 200
45 40 200
46 50 200
47 60 200
48 70 200
49 80 200
50 90 200
51 90 250
52 80 250
53 70 250
54 60 250
55 50 250
56 40 250
57 30 250
58 20 250
59 10 250
60 0 250
61 0 300
62 10 300
63 20 300
64 30 300
65 40 300
66 50 300
67 60 300
68 70 300
69 80 300
70 90 300
71 90 350
72 80 350
73 70 350
74 60 350
75 50 350
76 40 350
77 30 350
78 20 350
79 10 350
80 0 350
81 0 400
82 10 400
83 20 400
84 30 400
85 40 400
86 50 400
87 60 400
88 70 400
89 80 400
90 90 400
91 90 450
92 80 450
93 70 450
94 60 450
95 50 450
96 40 450
97 30 450
98 20 450
99 10 450
100 0 450
EOF