NAME : twisted_double_bridge_52
COMMENT : Rotated clusters + central trap (adversarial TSP)
TYPE : TSP
DIMENSION : 52
EDGE_WEIGHT_TYPE : EUC_2D
NODE_COORD_SECTION
1 10 10
2 20 10
3 30 10
4 40 10
5 50 10
6 10 20
7 20 20
8 30 20
9 40 20
10 50 20
11 10 30
12 20 30
13 30 30
14 40 30
15 50 30
16 10 40
17 20 40
18 30 40
19 40 40
20 50 40
21 200 10
22 200 20
23 200 30
24 200 40
25 200 50
26 210 10
27 210 20
28 210 30
29 210 40
30 210 50
31 220 10
32 220 20
33 220 30
34 220 40
35 220 50
36 230 10
37 230 20
38 230 30
39 230 40
40 230 50
41 110 25
42 120 20
43 130 25
44 120 30
45 115 35
46 125 35
47 80 5
48 160 45
49 90 60
50 150 0
51 100 15
52 140 35
EOF