NAME : triple_ring_60
COMMENT : 3 rotated rings (adversarial for angular ordering)
TYPE : TSP
DIMENSION : 60
EDGE_WEIGHT_TYPE : EUC_2D
NODE_COORD_SECTION
1 50 0
2 43 25
3 25 43
4 0 50
5 -25 43
6 -43 25
7 -50 0
8 -43 -25
9 -25 -43
10 0 -50
11 25 -43
12 43 -25
13 85 85
14 0 120
15 -85 85
16 -120 0
17 -85 -85
18 0 -120
19 85 -85
20 120 0
21 60 100
22 -60 100
23 -100 60
24 -100 -60
25 -60 -100
26 60 -100
27 100 -60
28 100 60
29 250 0
30 217 125
31 125 217
32 0 250
33 -125 217
34 -217 125
35 -250 0
36 -217 -125
37 -125 -217
38 0 -250
39 125 -217
40 217 -125
41 200 150
42 150 200
43 -150 200
44 -200 150
45 -200 -150
46 -150 -200
47 150 -200
48 200 -150
49 0 200
50 200 0
51 0 -200
52 -200 0
53 175 75
54 75 175
55 -75 175
56 -175 75
57 -175 -75
58 -75 -175
59 75 -175
60 175 -75
EOF