NAME : jb_alea_cv64_ce0_100
COMMENT : Generado por el Oraculo (CV: 0.6393)
TYPE : TSP
DIMENSION : 100
EDGE_WEIGHT_TYPE : EUC_2D
NODE_COORD_SECTION
1 555.1014 28.6007
2 300.9775 314.3664
3 323.2011 181.1292
4 390.6770 151.2556
5 942.0252 397.7494
6 92.4349 614.4882
7 920.0505 632.9247
8 309.8709 577.2928
9 188.5804 793.8420
10 654.2308 30.8696
11 375.0322 545.2511
12 628.7317 687.9627
13 714.7098 339.8516
14 769.9751 913.7746
15 944.4277 115.2898
16 641.8480 242.6520
17 840.8508 245.8755
18 491.4186 392.5623
19 514.5084 751.4832
20 538.4060 179.6996
21 807.4986 263.3373
22 920.4246 952.5261
23 823.2974 907.8922
24 230.2293 169.5203
25 11.0400 996.9585
26 21.4729 384.5750
27 746.2545 162.5837
28 241.4881 514.9157
29 716.7695 758.3656
30 302.3674 878.2001
31 271.6147 699.8834
32 620.8618 547.1347
33 626.1860 32.9982
34 391.8377 870.9705
35 442.4838 941.1101
36 62.8121 627.4101
37 120.3822 245.6748
38 845.1784 751.8902
39 909.6379 82.7663
40 393.6131 420.4682
41 11.0867 1.0534
42 123.3523 454.9857
43 825.7964 716.2167
44 8.7425 461.9635
45 488.9201 448.9987
46 862.1998 307.7628
47 235.6941 524.8510
48 564.2685 381.1755
49 583.3850 461.9934
50 600.6213 800.3693
51 773.3007 124.3408
52 878.3658 909.0063
53 563.9517 138.6706
54 843.9787 579.0260
55 184.7069 451.4809
56 343.5694 777.3519
57 232.1271 132.3588
58 620.7944 351.2990
59 342.7756 789.8123
60 894.4373 868.5027
61 608.7665 747.6347
62 867.9596 326.2734
63 78.9255 633.9585
64 95.0162 429.7575
65 645.7893 32.0759
66 783.8804 802.4497
67 346.6264 100.1691
68 346.3606 35.3286
69 517.8082 147.4464
70 171.4254 796.1173
71 978.6466 258.0137
72 677.0811 118.5076
73 846.3177 86.1234
74 210.3467 987.8880
75 335.2691 45.9361
76 867.6768 118.5631
77 672.4220 362.9685
78 453.2603 726.7244
79 830.6349 344.6895
80 174.0887 248.8037
81 131.7946 183.6621
82 13.5042 13.2633
83 167.8304 210.2154
84 690.3209 211.5652
85 351.4179 457.0459
86 242.0166 598.0054
87 148.1718 277.5834
88 907.9276 690.9700
89 998.3873 2.6791
90 806.4529 17.3692
91 722.2126 742.8557
92 539.2231 713.7161
93 528.5821 442.1108
94 342.2070 904.1811
95 727.9108 319.6011
96 556.6110 288.0690
97 725.4342 323.9005
98 285.1986 719.7052
99 504.5915 992.2315
100 552.1612 202.8228
EOF
