NAME : jb_alea_cv58_e65_150
COMMENT : Generado por el Oraculo (CV: 0.5801)
TYPE : TSP
DIMENSION : 150
EDGE_WEIGHT_TYPE : EUC_2D
NODE_COORD_SECTION
1 814.6529 328.4373
2 932.5107 690.9072
3 306.6153 46.8569
4 793.5385 504.5003
5 354.4185 502.0795
6 483.4459 674.6912
7 720.0953 894.5163
8 243.5433 886.7578
9 463.2508 673.0499
10 585.8374 736.6659
11 107.3544 232.7592
12 280.8651 691.8949
13 766.1483 787.1889
14 535.7049 312.7784
15 647.0414 341.5631
16 737.9094 478.0639
17 940.6320 526.6043
18 183.3748 120.5881
19 685.1801 956.6293
20 904.7360 853.6485
21 206.9947 609.5814
22 995.1328 59.2016
23 466.8805 931.9760
24 564.3682 962.7079
25 443.5722 363.9338
26 929.5234 298.4938
27 598.2381 567.8334
28 488.7525 901.6269
29 267.7911 528.5854
30 991.2445 783.3357
31 508.6823 56.9701
32 575.6215 188.7211
33 738.7513 79.6135
34 133.2087 840.5025
35 265.1410 264.6942
36 127.6657 607.5478
37 902.2189 849.8342
38 158.5926 801.9499
39 683.8948 718.9614
40 96.0161 943.7000
41 528.3812 436.5037
42 171.6084 596.2309
43 316.0074 800.7827
44 716.7436 560.3509
45 450.0201 853.9742
46 842.4840 965.8389
47 448.7188 327.6776
48 281.2139 726.4274
49 737.8399 293.2774
50 670.1788 412.6482
51 751.8218 177.8008
52 535.7274 15.4642
53 696.5373 825.7062
54 970.8126 365.7133
55 649.4633 970.5325
56 299.2205 156.4918
57 684.4952 486.6912
58 714.5709 228.7964
59 799.7815 576.0165
60 195.6911 616.3357
61 572.9771 137.8716
62 614.5939 861.8439
63 377.9325 673.5433
64 602.9946 335.9466
65 868.3180 178.2957
66 636.2778 834.0952
67 167.0523 71.9843
68 67.8839 727.6167
69 730.8026 545.1344
70 359.7253 127.3357
71 843.0884 201.5001
72 517.1567 916.3762
73 783.7720 612.8637
74 692.9448 212.5901
75 76.7887 569.1542
76 720.3133 833.5430
77 301.3177 759.1077
78 334.7521 874.1729
79 535.5136 239.2977
80 787.8296 880.0416
81 736.8617 53.1950
82 22.2164 623.2090
83 298.4384 184.5502
84 768.0452 179.3347
85 549.5479 81.7874
86 117.4472 939.5004
87 509.3938 644.4186
88 858.4253 698.3106
89 194.3465 664.9500
90 337.3114 697.1206
91 473.8774 432.4818
92 700.3655 818.4785
93 544.0918 161.5411
94 479.5222 126.9992
95 925.7132 303.2802
96 433.5681 511.4206
97 895.8352 896.3086
98 598.9075 404.5280
99 249.0233 431.8216
100 607.2463 594.5703
101 656.6463 359.6214
102 105.1665 547.9018
103 582.3750 4.5945
104 747.8574 471.0734
105 489.2468 707.0995
106 790.0276 845.4429
107 827.1955 570.3894
108 596.2452 90.2743
109 475.4503 372.8330
110 526.7645 21.2772
111 885.5568 153.0220
112 757.1615 495.3915
113 621.8095 669.8100
114 671.4954 396.7326
115 890.8437 300.2455
116 830.9915 89.5414
117 834.7767 549.9206
118 342.2001 776.2842
119 669.9652 814.8760
120 452.0578 582.2046
121 835.8771 375.9073
122 397.1408 681.6824
123 744.7281 413.9395
124 60.3506 57.2009
125 577.8818 452.2502
126 17.4209 478.3211
127 22.6694 744.0632
128 520.7847 899.0689
129 508.0516 270.1769
130 493.3048 482.7005
131 695.9996 818.3555
132 318.5286 174.8679
133 683.6380 233.3165
134 272.4721 338.3964
135 847.8632 470.9679
136 563.1523 344.7681
137 357.2619 833.2760
138 222.4191 481.8922
139 984.3278 692.0607
140 935.5159 927.8997
141 871.1650 538.0985
142 61.4962 82.3638
143 741.6495 804.3859
144 395.3453 793.6617
145 372.4054 127.9249
146 988.3881 828.9019
147 758.7684 692.2697
148 691.7359 81.1714
149 204.1249 504.1683
150 663.4003 921.7016
EOF
