NAME : jb_caos_cv194_916_100
COMMENT : Generado por el Oraculo (CV: 1.9447)
TYPE : TSP
DIMENSION : 100
EDGE_WEIGHT_TYPE : EUC_2D
NODE_COORD_SECTION
1 561.3821 883.5846
2 155.6804 733.4218
3 543.0608 894.9224
4 538.6603 901.4021
5 578.7441 167.0446
6 560.1481 869.1558
7 385.4728 452.9620
8 559.2449 896.9385
9 396.5166 444.5463
10 552.2112 189.8589
11 182.8410 764.8144
12 561.8867 894.4444
13 153.2262 736.9553
14 572.2370 181.2595
15 561.6665 164.3540
16 157.3127 747.2417
17 573.4165 177.9768
18 150.2134 753.6943
19 157.2200 759.5709
20 570.3837 170.3860
21 421.3254 443.1343
22 155.7710 732.6905
23 541.2618 883.4781
24 547.1074 879.1482
25 556.2060 876.2418
26 562.7807 164.3575
27 571.6399 174.9849
28 164.0917 753.6538
29 561.1828 150.9366
30 543.9494 874.0231
31 394.3024 435.0802
32 573.3139 166.2765
33 572.8997 895.2433
34 144.6247 766.1561
35 405.5966 451.2291
36 149.9845 744.8648
37 555.7761 169.7454
38 553.1552 904.0647
39 416.5561 432.7971
40 560.5215 168.7354
41 563.0756 888.6495
42 406.9325 455.4368
43 175.4555 752.4239
44 558.5131 190.1197
45 556.1567 906.7696
46 396.0462 449.2783
47 561.3579 880.3901
48 168.5621 745.2208
49 570.7043 899.5796
50 403.7937 435.6934
51 159.5420 743.6766
52 550.8308 875.8724
53 405.4139 429.3378
54 552.7730 900.8792
55 549.3181 169.8642
56 383.9415 436.9495
57 150.9336 747.5390
58 164.0301 753.9269
59 561.1269 891.4237
60 562.1120 897.8413
61 569.1760 199.3170
62 552.0377 175.2543
63 542.8162 883.7457
64 579.5891 899.8431
65 547.7610 197.5637
66 378.5077 438.3531
67 137.9192 745.8873
68 403.2531 433.8978
69 410.5824 440.5361
70 395.2362 453.9291
71 549.6597 873.1400
72 554.1782 181.4554
73 549.3283 175.4726
74 160.9113 736.2214
75 393.2630 435.7052
76 390.0472 447.4506
77 167.9800 746.8167
78 554.7041 875.7304
79 385.6200 436.5259
80 555.0551 869.6600
81 561.2230 177.7699
82 565.9930 182.4335
83 559.5760 166.8058
84 554.4570 173.9782
85 383.0750 441.9383
86 630.6040 555.4408
87 399.2778 337.3630
88 702.4567 33.1522
89 428.0332 999.3790
90 253.8487 198.9736
91 142.5062 146.2086
92 704.2142 811.3662
93 663.2755 839.1672
94 543.8823 778.0170
95 170.9471 62.0662
96 485.3525 94.4922
97 797.5098 930.6853
98 27.9880 220.0586
99 534.4252 473.3608
100 629.9642 471.3318
EOF
