NAME : jb_caos_cv135_c0c_100
COMMENT : Generado por el Oraculo (CV: 1.3467)
TYPE : TSP
DIMENSION : 100
EDGE_WEIGHT_TYPE : EUC_2D
NODE_COORD_SECTION
1 200.4660 781.5218
2 819.1059 398.1491
3 196.9734 777.8611
4 816.0471 770.7141
5 198.4601 783.0986
6 812.9479 779.8401
7 815.3199 771.7632
8 818.6812 396.4890
9 199.1547 778.1314
10 812.1260 768.3904
11 810.4993 783.7352
12 204.8662 782.6399
13 199.7092 783.7026
14 820.4398 401.8597
15 828.7054 395.9061
16 201.4171 777.1705
17 811.2665 773.1692
18 809.9800 765.4165
19 824.5600 397.3885
20 815.8183 405.3478
21 815.5055 777.5744
22 810.5332 774.6264
23 201.7187 773.4363
24 812.4328 775.7490
25 199.7901 784.7160
26 198.0136 786.1823
27 813.8683 777.4759
28 803.3174 771.1900
29 199.3168 781.6793
30 809.4598 778.8124
31 818.6048 774.9011
32 808.4350 772.4374
33 195.3620 780.5006
34 814.1227 773.3671
35 823.6881 773.5687
36 824.5690 403.4390
37 809.1627 772.8363
38 204.0576 780.4354
39 202.9561 779.2302
40 817.8194 401.5098
41 822.1124 405.3840
42 814.6647 773.0466
43 201.6213 790.3863
44 809.5351 775.0499
45 820.9089 401.5014
46 825.6175 401.2566
47 809.0114 778.5081
48 816.9483 770.8574
49 816.6388 775.5219
50 821.6899 406.2690
51 221.6832 996.6475
52 748.8990 477.8639
53 55.5128 532.2026
54 637.6264 608.0878
55 379.1986 658.1628
56 432.7136 375.1475
57 239.7272 142.3611
58 299.0892 145.0349
59 447.2869 488.0450
60 46.8858 944.7134
61 530.4942 500.4872
62 766.3554 606.1224
63 407.3118 702.8962
64 130.7058 658.9928
65 919.4799 935.3759
66 459.7974 602.7612
67 496.3305 134.2445
68 143.5309 585.0969
69 116.3900 88.2543
70 185.3694 916.4682
71 248.5731 142.7345
72 762.2810 49.2492
73 239.0736 950.7260
74 856.5090 118.9664
75 153.6512 523.4920
76 197.1030 974.7339
77 430.4828 643.7709
78 330.6342 934.6242
79 775.8122 473.8179
80 613.5247 846.7031
81 460.1616 391.4530
82 472.1558 365.3520
83 670.5270 610.8667
84 49.7211 153.2012
85 447.0145 16.1871
86 758.7694 615.7009
87 224.9477 806.3484
88 818.5115 788.8028
89 835.8080 771.3167
90 307.8547 516.9539
91 24.5405 126.8106
92 309.4606 167.7476
93 114.4221 287.8885
94 929.3907 562.9724
95 947.4186 875.8142
96 26.2005 400.8136
97 357.9438 55.8422
98 942.7781 791.9623
99 579.9204 261.5462
100 305.2544 32.7303
EOF
