NAME : jb_caos_cv108_400_150
COMMENT : Generado por el Oraculo (CV: 1.0839)
TYPE : TSP
DIMENSION : 150
EDGE_WEIGHT_TYPE : EUC_2D
NODE_COORD_SECTION
1 279.3188 696.5055
2 518.6541 319.1661
3 308.1315 732.1880
4 448.0350 730.9664
5 810.8830 408.8292
6 422.3343 843.1994
7 624.6794 339.2383
8 403.1180 802.9686
9 244.5875 617.8597
10 641.1135 396.8548
11 794.7088 679.4607
12 503.5950 337.7154
13 556.7012 346.2949
14 517.4405 313.4408
15 465.1513 781.2224
16 558.8277 346.5164
17 239.9792 613.2540
18 436.4792 847.2672
19 333.0229 649.9271
20 434.1769 772.7028
21 795.4750 384.2743
22 429.4932 851.3104
23 640.7253 434.9417
24 780.2341 376.8835
25 375.9007 680.4541
26 579.7339 384.3788
27 633.3535 399.8191
28 522.9691 320.1181
29 400.8685 882.4840
30 288.7719 672.8658
31 369.6739 695.3898
32 628.7274 357.2506
33 445.1736 896.9284
34 644.4919 420.7904
35 421.4793 788.5575
36 426.4082 875.3363
37 819.8754 723.5979
38 602.8648 381.3743
39 454.8172 859.5960
40 494.6826 336.4000
41 522.3931 361.4025
42 286.3461 688.3716
43 449.9641 851.4359
44 663.5792 393.5058
45 653.0414 375.6110
46 412.6573 848.9091
47 352.9882 760.6261
48 417.3596 799.4521
49 303.6024 623.4577
50 396.6045 813.4501
51 288.2118 607.0603
52 375.5167 691.4881
53 486.4814 872.8139
54 456.9765 680.9270
55 855.5496 697.2702
56 572.2150 341.5971
57 340.7516 735.4777
58 351.2399 656.8413
59 377.8203 705.0295
60 554.3296 346.4740
61 816.8230 338.5785
62 462.3172 770.7381
63 599.1885 343.1801
64 509.4338 355.1971
65 776.0425 378.8359
66 322.8345 636.2126
67 824.3329 685.4102
68 605.7670 391.4037
69 408.3617 842.2318
70 332.6277 650.5287
71 841.5422 708.9361
72 436.5948 732.8304
73 314.8175 599.4476
74 457.4132 749.5929
75 833.4622 357.0969
76 291.7965 651.2012
77 618.3347 345.2284
78 786.3255 657.7589
79 291.8135 589.1068
80 450.9022 776.8353
81 643.4612 339.9183
82 829.9455 339.9712
83 433.4765 773.1506
84 450.4911 706.8016
85 355.7408 697.7526
86 869.8277 701.6531
87 817.5109 359.2541
88 293.1250 634.8191
89 341.5541 732.8517
90 778.6212 657.4008
91 247.8168 657.0497
92 271.8218 637.7007
93 340.0742 680.4515
94 332.6007 672.1652
95 532.8138 329.7713
96 403.0145 699.0416
97 345.6093 170.2614
98 290.1601 659.2985
99 926.0960 944.3575
100 42.0239 292.4131
101 357.9799 98.6995
102 107.2153 152.6245
103 406.4046 606.6943
104 724.7983 307.7467
105 7.4045 360.9335
106 761.0215 170.6570
107 777.3380 847.8884
108 616.9488 130.3912
109 233.4357 927.2722
110 916.7856 243.1999
111 983.0326 577.6329
112 424.6148 143.9585
113 111.5446 708.2789
114 177.7980 485.2823
115 456.0574 457.2574
116 273.4598 44.6756
117 590.6026 154.1885
118 293.2474 630.2664
119 812.0292 898.8235
120 333.6520 712.5785
121 261.6684 146.2850
122 559.5182 721.9991
123 708.2997 303.2044
124 878.1069 22.4104
125 751.8349 701.6436
126 873.4685 849.9466
127 865.8422 788.9070
128 988.5185 636.6017
129 296.3439 465.4794
130 403.1657 267.7822
131 909.5797 906.0523
132 31.1051 536.6223
133 537.7047 894.3267
134 845.9768 982.0398
135 695.5090 999.8918
136 930.1651 96.0067
137 850.3991 508.2805
138 462.3635 729.9366
139 1.2345 672.2032
140 453.2731 843.0709
141 901.9257 302.5008
142 632.8901 989.8373
143 45.7370 17.4829
144 237.1469 276.1652
145 367.6932 211.5029
146 123.0848 991.6312
147 968.2172 583.1435
148 947.3371 48.7580
149 97.6889 716.8897
150 215.4907 946.3317
EOF
