NAME : jb_caos_cv254_c91_150
COMMENT : Generado por el Oraculo (CV: 2.5385)
TYPE : TSP
DIMENSION : 150
EDGE_WEIGHT_TYPE : EUC_2D
NODE_COORD_SECTION
1 549.3057 384.0739
2 602.4645 374.5998
3 371.8777 518.0198
4 537.4329 377.5507
5 248.6446 614.2920
6 251.0851 619.8348
7 591.3959 369.5498
8 578.2061 363.5403
9 419.8031 499.3291
10 570.1234 394.5042
11 543.0624 390.8490
12 536.0758 384.8943
13 544.6949 393.0667
14 531.2513 400.3375
15 590.1000 368.1615
16 409.8748 524.7271
17 601.2812 395.2172
18 609.5754 372.4096
19 248.3955 608.2644
20 549.3175 404.7347
21 576.8205 376.1420
22 255.8749 610.1005
23 590.3559 369.3840
24 406.5166 516.6288
25 599.7817 370.9864
26 552.9265 400.2931
27 555.5285 377.4175
28 413.5873 535.1430
29 246.4882 594.5563
30 545.5299 388.5435
31 398.5358 511.9611
32 540.4304 391.3713
33 411.7271 499.6924
34 556.0799 391.7635
35 257.2317 622.9577
36 418.0506 518.3520
37 259.4003 593.1195
38 603.3240 359.6982
39 597.2100 379.8010
40 622.4891 364.6040
41 240.8803 607.8662
42 239.8958 627.2336
43 535.8970 362.8117
44 429.3670 507.1771
45 606.9719 374.0201
46 411.9322 523.6004
47 556.0940 387.3734
48 589.5099 368.2914
49 555.9203 380.9173
50 415.5883 529.5501
51 252.2769 605.3339
52 409.4328 520.9013
53 246.3624 612.2559
54 552.8553 390.0341
55 551.4469 376.6043
56 409.0725 526.6167
57 593.2348 377.6188
58 532.1523 392.6489
59 244.7981 612.6483
60 552.6783 416.3977
61 528.6314 377.1354
62 565.3879 368.5732
63 589.0737 383.7884
64 267.7908 593.2783
65 599.1965 366.7885
66 590.9159 373.3563
67 409.6504 517.1573
68 426.0290 510.8157
69 565.8538 369.4724
70 589.6734 376.8028
71 590.5300 384.8866
72 245.7004 619.5169
73 568.9681 386.3036
74 549.4352 387.0315
75 255.0357 620.7382
76 540.0268 392.1621
77 578.3676 365.2139
78 552.7541 400.1177
79 592.9440 397.4672
80 557.6926 385.2705
81 587.2772 383.9409
82 547.5492 392.8805
83 541.9473 378.8737
84 533.0093 381.6822
85 582.9492 391.3624
86 540.7590 378.3254
87 258.6485 626.9529
88 590.7751 388.4300
89 248.5785 617.3055
90 240.9222 616.7288
91 534.0982 385.3435
92 535.5607 382.8346
93 394.4751 515.0803
94 543.5728 380.3305
95 259.9081 613.3964
96 546.9682 395.4875
97 596.5960 374.3324
98 250.0719 599.4899
99 540.0512 386.1093
100 538.7206 393.4430
101 599.4421 375.0960
102 617.4589 380.7629
103 553.6733 400.0016
104 542.2920 395.3210
105 239.5430 628.0883
106 595.3944 367.0220
107 233.5971 612.0365
108 233.6690 609.9781
109 589.1803 369.0359
110 268.1946 607.4814
111 584.0005 372.5467
112 548.4648 381.3258
113 406.3979 520.1137
114 586.6541 367.6693
115 613.1281 362.2599
116 591.8556 378.2354
117 242.5954 615.0913
118 248.0967 597.7662
119 241.0600 594.9656
120 547.6293 388.6519
121 581.6590 376.9415
122 559.7554 403.9147
123 241.9229 603.7744
124 248.2616 632.6477
125 563.2379 401.9690
126 560.8038 380.9839
127 598.4650 398.0346
128 601.7231 365.8808
129 692.4331 104.7212
130 335.2574 389.1555
131 296.1436 605.4649
132 365.7582 867.5473
133 318.5397 590.7773
134 969.9202 795.0282
135 715.0336 709.1350
136 839.0495 776.9452
137 312.4088 569.8498
138 248.1027 905.0032
139 143.7528 33.7181
140 195.7756 866.7234
141 988.8625 488.7719
142 531.6657 875.8691
143 496.2021 994.5773
144 763.4455 349.8595
145 773.5959 98.5239
146 913.4923 911.7099
147 23.2759 899.7289
148 955.3657 825.4333
149 768.8429 644.5419
150 523.3800 650.9807
EOF
