NAME : jb_caos_cv131_247_150
COMMENT : Generado por el Oraculo (CV: 1.3125)
TYPE : TSP
DIMENSION : 150
EDGE_WEIGHT_TYPE : EUC_2D
NODE_COORD_SECTION
1 859.3586 570.9093
2 823.7816 864.8477
3 672.4317 285.3548
4 822.8787 864.5247
5 670.2431 285.5577
6 823.0500 864.5042
7 823.2872 866.4862
8 671.9470 285.8221
9 671.4686 285.5271
10 322.2589 747.7746
11 859.0056 570.9435
12 496.0927 406.5810
13 672.0087 285.6358
14 496.0410 408.1280
15 858.3773 571.1817
16 825.1310 864.7037
17 823.6579 863.8980
18 811.4054 458.6424
19 822.7313 866.2256
20 812.3812 458.0571
21 322.0259 747.3904
22 322.2205 745.9918
23 323.7916 748.4440
24 323.1110 746.0176
25 811.7753 458.0839
26 812.7579 457.5560
27 858.1481 570.4402
28 321.2683 744.0245
29 824.2469 863.8031
30 323.0274 748.8024
31 809.9698 456.9928
32 859.3034 569.6668
33 670.9957 286.6909
34 671.8271 287.8054
35 496.5564 409.1200
36 824.9138 864.9379
37 496.1093 408.5548
38 670.3599 286.6601
39 496.0302 405.6906
40 858.3530 568.5324
41 672.6806 285.9867
42 498.4733 404.3470
43 811.4440 457.0280
44 323.2755 748.1056
45 324.5404 747.0058
46 856.0220 570.1159
47 322.8791 747.6818
48 671.7246 285.5043
49 811.8111 458.8990
50 671.3448 286.2088
51 321.7366 747.7533
52 857.4059 569.7628
53 672.3477 285.7215
54 822.6598 864.2853
55 859.0122 570.8775
56 823.5451 865.6129
57 824.4730 864.9468
58 824.8301 866.2060
59 323.6555 746.5308
60 859.2477 570.6329
61 812.0614 457.6398
62 324.0683 747.2225
63 671.9359 286.3240
64 825.5314 865.3717
65 674.8177 286.2029
66 673.5428 287.2668
67 861.6226 569.5008
68 495.4688 408.0519
69 672.5216 285.8654
70 858.1491 570.0035
71 824.8732 865.3340
72 859.0579 571.3067
73 811.4057 459.1363
74 322.8095 748.6803
75 323.1397 746.4874
76 957.5341 540.4317
77 259.2385 961.4185
78 992.1684 473.3291
79 442.6187 842.9952
80 956.4688 207.5320
81 554.7651 124.5283
82 610.9177 357.9779
83 265.3186 186.2820
84 141.5149 971.1969
85 825.8781 879.8998
86 480.4775 11.9686
87 221.9825 568.6962
88 956.9829 487.5323
89 493.1179 427.3697
90 231.3199 424.8850
91 212.0090 913.6178
92 359.9271 858.2762
93 955.4951 865.4055
94 737.0109 57.7988
95 573.1684 132.0218
96 956.5243 824.9864
97 288.6415 108.1402
98 193.1802 171.6596
99 211.2028 115.6803
100 470.9924 282.5073
101 9.1225 728.6380
102 527.4524 397.8221
103 187.8108 995.9226
104 165.5977 784.9919
105 324.0323 839.9106
106 751.5799 542.7669
107 373.4990 920.4850
108 790.0592 826.2328
109 507.1917 860.9469
110 930.3732 210.2469
111 183.0430 863.7613
112 599.1269 751.7973
113 590.0948 780.6594
114 863.6174 961.3441
115 830.6101 254.7595
116 31.8897 513.9459
117 63.5185 869.2294
118 831.4292 588.4738
119 545.5218 773.0382
120 980.6750 596.5162
121 793.9486 511.3789
122 998.9747 200.3048
123 515.6126 270.3781
124 396.1573 25.5269
125 605.8968 180.1772
126 540.9756 796.7918
127 97.9387 365.1932
128 66.2531 278.1349
129 205.3906 925.1064
130 954.5966 270.8123
131 238.5539 938.4038
132 491.2883 72.7577
133 536.1536 934.1696
134 155.4594 252.6187
135 354.2171 429.8299
136 261.1456 814.7359
137 901.5603 413.8590
138 593.0493 222.5408
139 977.8464 416.2687
140 323.7459 874.5450
141 703.9818 249.4823
142 313.8395 740.7767
143 626.4850 606.8471
144 12.8754 96.3425
145 65.5485 563.4420
146 698.9553 942.5610
147 211.4850 306.6714
148 888.7163 741.1833
149 659.5758 363.5494
150 310.3554 139.4771
EOF
