NAME : jb_caos_cv205_4f2_50
COMMENT : Generado por el Oraculo (CV: 2.0505)
TYPE : TSP
DIMENSION : 50
EDGE_WEIGHT_TYPE : EUC_2D
NODE_COORD_SECTION
1 818.6242 781.5792
2 647.0517 454.5590
3 808.0323 572.9876
4 824.7240 803.2486
5 642.5649 472.5242
6 658.1769 449.8028
7 836.3441 815.4485
8 120.9908 564.4105
9 130.7651 563.1868
10 645.0803 446.7033
11 651.4202 476.8800
12 821.6254 788.9040
13 116.3344 554.6918
14 798.6063 570.5754
15 121.4370 557.3227
16 128.8331 547.2331
17 647.3074 463.3395
18 106.8867 546.1131
19 109.7042 535.8572
20 815.9794 584.5522
21 849.6932 817.8455
22 818.0780 812.0973
23 639.6447 479.9526
24 825.6454 805.6561
25 838.9703 799.5510
26 93.2784 541.6402
27 125.8295 554.0173
28 803.3924 564.2311
29 124.4469 550.0927
30 113.8704 558.2879
31 818.9520 568.1635
32 97.0764 558.8034
33 818.4567 801.8614
34 114.6521 528.5524
35 810.4507 569.7347
36 818.3732 566.9400
37 827.7470 822.0661
38 636.5954 477.2769
39 800.6386 572.2534
40 652.5438 460.7335
41 115.6086 543.1500
42 835.5825 809.3875
43 835.8644 804.2131
44 266.1863 107.4530
45 723.9397 183.5448
46 134.9500 301.7733
47 203.4983 855.4997
48 563.2222 366.9268
49 920.7509 975.8581
50 299.0319 823.1038
EOF
