NAME : jb_caos_cv265_cef_200
COMMENT : Generado por el Oraculo (CV: 2.6452)
TYPE : TSP
DIMENSION : 200
EDGE_WEIGHT_TYPE : EUC_2D
NODE_COORD_SECTION
1 500.1937 468.0055
2 900.4622 602.6287
3 902.7723 588.3559
4 443.1150 237.4982
5 486.3562 483.1817
6 481.7005 480.8304
7 790.8327 528.3384
8 445.9077 226.9054
9 428.3239 258.0117
10 791.2113 533.5538
11 436.6492 248.5262
12 480.2962 481.7473
13 426.5914 233.8940
14 887.1189 583.2298
15 777.4524 517.5063
16 889.7920 584.5742
17 798.7759 526.4541
18 461.2920 233.0473
19 797.5449 535.1083
20 790.5956 533.4676
21 801.0073 512.2938
22 470.9702 479.6018
23 778.4328 505.7537
24 798.3728 506.0575
25 900.9281 605.0344
26 447.5050 237.3117
27 902.8400 606.0382
28 437.4486 239.0694
29 790.8587 535.8484
30 802.4165 523.2640
31 439.6590 254.4751
32 788.8718 520.0241
33 483.6097 475.8536
34 887.5708 598.8173
35 430.7034 230.1363
36 415.6965 243.3979
37 901.2252 582.9846
38 483.7372 481.2871
39 896.2433 578.8266
40 911.3736 590.2271
41 905.9137 581.0128
42 891.0100 580.4786
43 898.9826 601.8558
44 492.1269 475.9949
45 807.3284 511.3826
46 895.0746 596.4044
47 488.6158 479.9666
48 445.2475 248.8329
49 797.9096 522.7062
50 476.2011 458.7354
51 783.4089 522.9430
52 891.9037 581.9318
53 888.9058 593.7155
54 894.4698 584.1763
55 489.5866 462.1057
56 890.7339 592.4717
57 905.8526 582.3551
58 876.2835 593.7254
59 799.7162 526.8482
60 880.3554 597.1012
61 437.1996 253.0053
62 434.7962 243.3566
63 457.0551 243.5847
64 493.5481 469.5465
65 490.4419 480.3275
66 888.5748 613.9638
67 888.0303 592.3234
68 799.3849 537.8365
69 444.9623 238.5412
70 791.5366 546.1903
71 492.7685 480.2484
72 781.4105 537.7646
73 446.7826 245.3687
74 484.4965 479.9303
75 901.2125 591.5891
76 782.6629 540.1322
77 798.9868 524.4836
78 884.8575 612.9983
79 884.9659 603.9217
80 431.8222 238.1412
81 896.8149 578.9902
82 793.9932 516.3509
83 482.4363 484.6353
84 888.8230 597.2672
85 469.0150 480.0351
86 449.9663 236.9306
87 437.6381 242.3928
88 483.1776 472.0501
89 472.0598 469.7928
90 895.1212 602.4359
91 462.8461 228.3069
92 435.1835 233.4163
93 442.3416 239.6276
94 482.0038 466.3542
95 808.0895 527.1496
96 422.2258 256.4806
97 878.2303 600.2028
98 448.7033 246.4912
99 775.9953 527.8159
100 888.4385 592.9430
101 474.8918 476.5992
102 456.3978 250.7579
103 770.8385 538.3393
104 497.3238 476.5902
105 490.8392 482.6458
106 446.1283 252.6192
107 455.4132 245.1804
108 449.4789 233.1253
109 451.8913 238.4074
110 877.3105 575.2671
111 448.3554 240.9017
112 437.9821 225.0427
113 484.3141 467.5178
114 453.1828 234.9396
115 884.6059 603.4359
116 444.9364 217.8728
117 794.0988 529.3144
118 474.0560 460.5219
119 791.1824 517.2682
120 490.1729 485.1941
121 899.0823 582.1344
122 429.1669 239.9449
123 436.4521 235.2665
124 493.3633 482.2937
125 446.3957 255.5697
126 799.9934 519.6019
127 890.3495 589.9977
128 472.5077 473.2488
129 905.9497 581.6807
130 422.4572 218.9333
131 438.7559 243.6458
132 786.6034 507.6669
133 910.0828 607.3775
134 803.8579 538.0434
135 905.7041 582.5061
136 478.8798 462.8307
137 901.9085 602.7585
138 474.0757 477.7814
139 485.2461 465.5115
140 465.3507 219.9066
141 792.9865 527.1620
142 775.7403 515.0688
143 767.9724 529.9559
144 887.2125 601.8558
145 900.0931 585.1868
146 455.1780 240.7577
147 794.9328 535.6816
148 434.4859 251.4717
149 794.3828 518.2336
150 462.3446 226.8966
151 496.0232 477.0275
152 490.9039 459.6506
153 906.9275 593.3544
154 432.3511 247.7209
155 443.9976 245.2621
156 890.4563 616.5314
157 796.5418 515.9624
158 438.1061 233.1456
159 445.9793 247.1565
160 897.8224 589.3934
161 777.6061 507.4995
162 805.4464 509.4341
163 898.7488 599.9993
164 910.2031 592.7963
165 800.4218 524.0561
166 878.0681 584.8731
167 460.2082 221.4024
168 789.2938 526.3257
169 783.1126 532.7840
170 814.5037 531.3244
171 551.7059 340.4165
172 470.3574 339.1225
173 509.5141 305.3702
174 527.1687 553.6314
175 606.9842 250.7371
176 983.3960 962.1520
177 270.5899 3.6565
178 132.7728 533.4828
179 190.1747 34.6690
180 136.9262 976.1057
181 162.2049 374.2091
182 907.9045 8.9871
183 455.3198 829.3121
184 741.7394 478.4930
185 78.6962 252.4230
186 743.9279 279.1496
187 951.9919 447.8818
188 668.0645 187.3342
189 683.5096 207.9227
190 925.2275 325.2624
191 934.1958 295.5220
192 666.3425 159.9479
193 967.9232 633.8076
194 167.1925 397.8577
195 164.2058 136.8133
196 928.2137 335.0680
197 683.6389 294.6224
198 616.1260 933.6432
199 340.8535 846.6852
200 168.1314 471.1712
EOF
