NAME : jb_caos_cv148_1a6_50
COMMENT : Generado por el Oraculo (CV: 1.4756)
TYPE : TSP
DIMENSION : 50
EDGE_WEIGHT_TYPE : EUC_2D
NODE_COORD_SECTION
1 840.2539 142.2746
2 118.2474 618.4495
3 837.8718 141.4885
4 112.5125 618.3150
5 847.5192 139.9387
6 568.1817 371.9236
7 564.8850 381.3037
8 564.1056 380.6454
9 843.5075 144.5234
10 570.1085 374.4768
11 123.8699 619.2921
12 567.9715 381.9256
13 568.5653 382.9303
14 836.6437 149.3019
15 570.4333 367.5954
16 835.5922 144.2016
17 115.7829 616.2860
18 841.9306 143.4851
19 123.9345 611.4576
20 119.8988 624.5402
21 123.3142 620.0618
22 561.9841 380.7190
23 839.7061 136.9284
24 570.2050 387.3181
25 561.2501 380.1307
26 165.1515 734.9267
27 685.5167 589.2927
28 945.2069 419.9372
29 432.1792 842.6463
30 230.0866 191.1874
31 42.1754 332.8733
32 277.1364 608.1099
33 83.8614 629.6095
34 165.7464 197.7351
35 18.8080 457.6876
36 16.4299 51.5563
37 376.9750 59.7752
38 898.8469 549.8382
39 887.7794 493.1800
40 627.8360 281.0319
41 520.1863 418.9507
42 759.6928 883.7779
43 260.8827 175.9832
44 108.8838 596.2704
45 212.9706 227.7565
46 28.4303 251.5229
47 523.8267 464.5100
48 165.5885 821.3427
49 56.2825 229.5248
50 513.7603 470.1588
EOF
